(declare-fun temp559_1 () (_ BitVec 64))
(declare-fun var154683 () (_ BitVec 64))
(declare-fun k!0 () Bool)
(declare-fun ARGNAME_source_NAMEEND_LEN () (_ BitVec 64))
(declare-fun ARGNAME_destination_NAMEEND_LEN () (_ BitVec 64))
(declare-fun temp559_3 () (_ BitVec 64))
(declare-fun temp559_2 () (_ BitVec 64))
(declare-fun temp559_4 () (_ BitVec 64))
(declare-fun var266826 () (_ BitVec 64))
(declare-fun var266828 () (_ BitVec 64))
(declare-fun temp559_6 () (_ BitVec 64))
(declare-fun temp559_5 () (_ BitVec 64))
(declare-fun temp559_7 () (_ BitVec 64))
(declare-fun var594506 () (_ BitVec 64))
(declare-fun var594508 () (_ BitVec 64))
(declare-fun temp559_9 () (_ BitVec 64))
(declare-fun temp559_8 () (_ BitVec 64))
(declare-fun temp559_10 () (_ BitVec 64))
(declare-fun var1053642 () (_ BitVec 64))
(declare-fun temp559_12 () (_ BitVec 64))
(declare-fun temp559_11 () (_ BitVec 64))
(declare-fun temp559_13 () (_ BitVec 64))
(declare-fun var1774538 () (_ BitVec 64))
(declare-fun temp559_14 () (_ BitVec 64))
(declare-fun var2429514 () (_ BitVec 64))
(declare-fun temp559_15 () (_ BitVec 64))
(declare-fun var3871306 () (_ BitVec 64))
(declare-fun temp559_16 () (_ BitVec 64))
(declare-fun ARGNAME_input_NAMEEND_DIM () (_ BitVec 64))
(declare-fun var154805 () (_ BitVec 64))
(declare-fun temp559_17 () (_ BitVec 64))
(declare-fun temp559_19 () (_ BitVec 64))
(declare-fun temp559_18 () (_ BitVec 64))
(declare-fun temp559_20 () (_ BitVec 64))
(declare-fun var5247562 () (_ BitVec 64))
(declare-fun var5247564 () (_ BitVec 64))
(declare-fun temp559_22 () (_ BitVec 64))
(declare-fun temp559_21 () (_ BitVec 64))
(declare-fun temp559_23 () (_ BitVec 64))
(declare-fun var6165066 () (_ BitVec 64))
(declare-fun var6165068 () (_ BitVec 64))
(declare-fun temp559_25 () (_ BitVec 64))
(declare-fun temp559_24 () (_ BitVec 64))
(declare-fun temp559_26 () (_ BitVec 64))
(declare-fun var6885962 () (_ BitVec 64))
(declare-fun var6885964 () (_ BitVec 64))
(declare-fun temp559_28 () (_ BitVec 64))
(declare-fun temp559_27 () (_ BitVec 64))
(declare-fun var8328133 () (_ BitVec 64))
(declare-fun temp559_29 () (_ BitVec 64))
(declare-fun temp559_30 () (_ BitVec 64))
(declare-fun var8393674 () (_ BitVec 64))
(declare-fun temp559_32 () (_ BitVec 64))
(declare-fun temp559_31 () (_ BitVec 64))
(declare-fun temp559_34 () (_ BitVec 64))
(declare-fun temp559_33 () (_ BitVec 64))
(declare-fun var154934 () (_ BitVec 64))
(declare-fun var9309049 () (_ BitVec 64))
(declare-fun temp559_36 () (_ BitVec 64))
(declare-fun temp559_35 () (_ BitVec 64))
(declare-fun var9375041 () (_ BitVec 64))
(declare-fun var9375042 () (_ BitVec 64))
(declare-fun temp559_37 () (_ BitVec 64))
(declare-fun temp559_38 () (_ BitVec 64))
(declare-fun var9440583 () (_ BitVec 64))
(declare-fun var9506130 () (_ BitVec 64))
(assert (= var154683
   (ite (= ARGNAME_source_NAMEEND_LEN ARGNAME_destination_NAMEEND_LEN)
        #x0000000000000001
        #x0000000000000000)))
(assert (= temp559_1 #x0000000000000001))
(assert (= var154683 temp559_1))
(assert (= temp559_3 #x0000000000000000))
(assert (= temp559_2 temp559_3))
(assert (= temp559_4 #x0000000000000005))
(assert (= var266826 temp559_4))
(assert (= var266828 var266826))
(assert (= temp559_6 #x0000000000000000))
(assert (= temp559_5 temp559_6))
(assert (= temp559_7 #x0000000000000005))
(assert (= var594506 temp559_7))
(assert (= var594508 var594506))
(assert (= temp559_9 #x0000000000000000))
(assert (= temp559_8 temp559_9))
(assert (= temp559_10 #x0000000000000000))
(assert (= var1053642 temp559_10))
(assert (= temp559_12 #x0000000000000000))
(assert (= temp559_11 temp559_12))
(assert (= temp559_13 #x0000000000000000))
(assert (= var1774538 temp559_13))
(assert (= temp559_14 #x0000000000000005))
(assert (= var2429514 temp559_14))
(assert (= temp559_15 #x0000000000000005))
(assert (= var3871306 temp559_15))
(assert (= temp559_16 #x0000000000000000))
(assert (= var154805
   (ite (= ARGNAME_input_NAMEEND_DIM temp559_16)
        #x0000000000000001
        #x0000000000000000)))
(assert (= temp559_17 #x0000000000000000))
(assert (= var154805 temp559_17))
(assert (= temp559_19 #x0000000000000000))
(assert (= temp559_18 temp559_19))
(assert (= temp559_20 #x0000000000000005))
(assert (= var5247562 temp559_20))
(assert (= var5247564 var5247562))
(assert (= temp559_22 #x0000000000000000))
(assert (= temp559_21 temp559_22))
(assert (= temp559_23 #x0000000000000005))
(assert (= var6165066 temp559_23))
(assert (= var6165068 var6165066))
(assert (= temp559_25 #x0000000000000000))
(assert (= temp559_24 temp559_25))
(assert (= temp559_26 #x0000000000000005))
(assert (= var6885962 temp559_26))
(assert (= var6885964 var6885962))
(assert (= temp559_28 #x0000000000000000))
(assert (= temp559_27 temp559_28))
(assert (= var8328133
   (ite (bvslt temp559_27 ARGNAME_source_NAMEEND_LEN)
        #x0000000000000001
        #x0000000000000000)))
(assert (= temp559_29
   (ite (= var8328133 #x0000000000000001) ARGNAME_source_NAMEEND_LEN temp559_27)))
(assert (= temp559_30 #x0000000000000000))
(assert (= var8393674 temp559_30))
(assert (= temp559_32 #xffffffffffffffff))
(assert (= temp559_31 temp559_32))
(assert (= temp559_34 #xffffffffffffffff))
(assert (= temp559_33 temp559_34))
(assert (= var154934 (bvsub ARGNAME_input_NAMEEND_DIM ARGNAME_source_NAMEEND_LEN)))
(assert (= var9309049 var154934))
(assert (= temp559_36 #x0000000000000000))
(assert (= temp559_35 temp559_36))
(assert (= var9375041 var9309049))
(assert (= var9375042
   (ite (bvslt temp559_35 var9375041) #x0000000000000001 #x0000000000000000)))
(assert (= temp559_37 (ite (= var9375042 #x0000000000000001) var9309049 temp559_35)))
(assert (= temp559_38 #x0000000000000000))
(assert (= var9440583 temp559_38))
(assert (= var9506130 var9440583))
(model-add temp559_1 () (_ BitVec 64) #x0000000000000001)
(model-add var154683 () (_ BitVec 64) #x0000000000000001)
(model-del k!0)
(model-add ARGNAME_source_NAMEEND_LEN
           ()
           (_ BitVec 64)
           (ite k!0
                ARGNAME_destination_NAMEEND_LEN
                (bvnot ARGNAME_destination_NAMEEND_LEN)))




